\* Problem: wagons *\

Minimize
 obj: + x_49

Subject To
 r_1: + x_3 + x_2 + x_1 = 1
 r_2: + x_6 + x_5 + x_4 = 1
 r_3: + x_9 + x_8 + x_7 = 1
 r_4: + x_12 + x_11 + x_10 = 1
 r_5: + x_15 + x_14 + x_13 = 1
 r_6: + x_18 + x_17 + x_16 = 1
 r_7: + x_21 + x_20 + x_19 = 1
 r_8: + x_24 + x_23 + x_22 = 1
 r_9: + x_27 + x_26 + x_25 = 1
 r_10: + x_30 + x_29 + x_28 = 1
 r_11: + x_33 + x_32 + x_31 = 1
 r_12: + x_36 + x_35 + x_34 = 1
 r_13: + x_39 + x_38 + x_37 = 1
 r_14: + x_42 + x_41 + x_40 = 1
 r_15: + x_45 + x_44 + x_43 = 1
 r_16: + x_48 + x_47 + x_46 = 1
 r_17: - x_49 + 25 x_46 + 25 x_43 + 9 x_40 + 33 x_37 + 13 x_34 + 14 x_31
 + 31 x_28 + 25 x_25 + 21 x_22 + 13 x_19 + 5 x_16 + 16 x_13 + 17 x_10
 + 8 x_7 + 6 x_4 + 34 x_1 <= 0
 r_18: - x_49 + 25 x_47 + 25 x_44 + 9 x_41 + 33 x_38 + 13 x_35 + 14 x_32
 + 31 x_29 + 25 x_26 + 21 x_23 + 13 x_20 + 5 x_17 + 16 x_14 + 17 x_11
 + 8 x_8 + 6 x_5 + 34 x_2 <= 0
 r_19: - x_49 + 25 x_48 + 25 x_45 + 9 x_42 + 33 x_39 + 13 x_36 + 14 x_33
 + 31 x_30 + 25 x_27 + 21 x_24 + 13 x_21 + 5 x_18 + 16 x_15 + 17 x_12
 + 8 x_9 + 6 x_6 + 34 x_3 <= 0

Bounds
 0 <= x_1 <= 1
 0 <= x_2 <= 1
 0 <= x_3 <= 1
 0 <= x_4 <= 1
 0 <= x_5 <= 1
 0 <= x_6 <= 1
 0 <= x_7 <= 1
 0 <= x_8 <= 1
 0 <= x_9 <= 1
 0 <= x_10 <= 1
 0 <= x_11 <= 1
 0 <= x_12 <= 1
 0 <= x_13 <= 1
 0 <= x_14 <= 1
 0 <= x_15 <= 1
 0 <= x_16 <= 1
 0 <= x_17 <= 1
 0 <= x_18 <= 1
 0 <= x_19 <= 1
 0 <= x_20 <= 1
 0 <= x_21 <= 1
 0 <= x_22 <= 1
 0 <= x_23 <= 1
 0 <= x_24 <= 1
 0 <= x_25 <= 1
 0 <= x_26 <= 1
 0 <= x_27 <= 1
 0 <= x_28 <= 1
 0 <= x_29 <= 1
 0 <= x_30 <= 1
 0 <= x_31 <= 1
 0 <= x_32 <= 1
 0 <= x_33 <= 1
 0 <= x_34 <= 1
 0 <= x_35 <= 1
 0 <= x_36 <= 1
 0 <= x_37 <= 1
 0 <= x_38 <= 1
 0 <= x_39 <= 1
 0 <= x_40 <= 1
 0 <= x_41 <= 1
 0 <= x_42 <= 1
 0 <= x_43 <= 1
 0 <= x_44 <= 1
 0 <= x_45 <= 1
 0 <= x_46 <= 1
 0 <= x_47 <= 1
 0 <= x_48 <= 1

Generals
 x_1
 x_2
 x_3
 x_4
 x_5
 x_6
 x_7
 x_8
 x_9
 x_10
 x_11
 x_12
 x_13
 x_14
 x_15
 x_16
 x_17
 x_18
 x_19
 x_20
 x_21
 x_22
 x_23
 x_24
 x_25
 x_26
 x_27
 x_28
 x_29
 x_30
 x_31
 x_32
 x_33
 x_34
 x_35
 x_36
 x_37
 x_38
 x_39
 x_40
 x_41
 x_42
 x_43
 x_44
 x_45
 x_46
 x_47
 x_48

End
